NAME: dataset20
TYPE: TSP
COMMENT: 20 random locations
DIMENSION: 20
EDGE_WEIGHT_TYPE: EUC_2D
NODE_COORD_SECTION
1 48.416810593 211.7111255693
2 32.1899736148 262.0071684588
3 233.5142469471 162.9749393694
4 199.6142719383 52.4398178269
5 350.6268081003 178.6552828175
6 148.4236054972 211.1443530292
7 233.4528076464 216.7106420405
8 6.5712426805 143.4886499403
9 67.2998643148 84.6207376479
10 219.6743554953 46.6138962181
11 72.4812895797 361.3660618997
12 92.8612550374 60.8077786088
13 239.6226415094 16.8957154406
14 2.9277813923 244.6104589114
15 352.6518804243 28.8332315211
16 140.3383214053 44.5022771633
17 57.087753134 282.931533269
18 261.6010854817 152.2616562283
19 99.0257480863 68.2210708117
20 69.9481865285 401.0752688172
EOF
