NAME: dataset30
TYPE: TSP
COMMENT: 30 random locations
DIMENSION: 30
EDGE_WEIGHT_TYPE: EUC_2D
NODE_COORD_SECTION
1 384.098185699 224.2171189979
2 36.2752430815 124.7738343772
3 129.7495418448 30.3961196443
4 77.4899251583 35.1252290776
5 431.1827956989 163.0421502749
6 202.8100183262 13.9882888744
7 306.0686015831 154.3223052295
8 24.4947453517 50.3166378814
9 124.0069084629 37.3790677221
10 40.25869038 192.7243330639
11 197.6933514247 228.8478452067
12 4.5480713874 121.6655823032
13 169.109947644 153.1554977228
14 4.3975373791 129.0949887809
15 149.6362166532 93.2498260264
16 1.3874066169 85.4241338112
17 310.3120759837 330.9438470729
18 270.2989392478 9.6774193548
19 113.6933461909 100.5785920926
20 52.2907758094 160.7869742198
21 170.236039148 153.8284398388
22 59.4982078853 6.7314884069
23 275.3653444676 376.7342582711
24 181.5468113976 188.8888888889
25 365.7417289221 83.8552540014
26 179.3321819229 135.0028785262
27 268.5136323659 102.2700119474
28 229.6296296296 82.9538061158
29 140.3569372481 199.1462113127
30 183.9940164547 66.2487945998
EOF
